     60      4     50    187     18
     33     33     36     45
     58      4     43     47     11     56      9     59     52     53      6      8     11     38     59     44     28     29     26     23     15      2     27     58     35     38     17     19     27     57      1      7     20     44     57     52     14     50     29     32     43      0     28     50     48     56     30     15     57     40     24      6     48     55     47     57     29     16     25     56     33     16     10     18     56     16     53     46     50     23     26     41     25     14     10     21      2     57      7     41      8     46      3     52     27     17     11     13     25     35     27     14     39      5     50     15     55     29     24     16     21     12     33     10     35     18     47     29     27      8     58     49     18     25     26     10      8     54     33     21     44      6     42     35     56     58     42     15     45      2     59     20     56     35     44     51     12     32      9     19     16     49     21     57      9     29     50     31     57     24      4     24     52     47     30     55     25     29     14     59     26     17     56      4     50     25     14      5     47     38      5     57     29     46     53     13     16     25     14     48     55     41     59     21     18     20      2     41     56      5     21     31      4     23     54     17     21     27     24      1     13      2     25     27     55     21      7     46      4     56     23     41     35     29     40     57     27     39     19     55     41      7     41     16      7     49      3     33     40     11     16     42     56     54     12     20     16     56     52     20     23     40     21      6     52     57      3     44     50      7     49     28     31     21      5     19     41     54     14     37     48     46     23     19     41      9     28     38     52     41     59     32     15     54     32     23     22     59     48     13     36     54      8     26     59      5     40     39     28     13     54     52     58      3     31     44     49     10     36     28     49     11     10     22     15      4     30     47     27     32      7     43      4     25     32     49      7     20     10     58     15      1     25     29      9     49      2     55     46     54     23     31     12     35     39      0      4     25     55     38     28     14     17     51     19     30     33     40     46     28     43     34     48     18     41     25     53     10     30     58     35     26     44     39     59     46     26     16     31     24     21     44     35     10     12     48     27     52     50      9     56     51     42     13      3      7     33     22     25     49      5      6      0     46      0      4     28      2     13     52     58     32     32     52      4      1     24      3     43     37     14     31     26     19     42     36     58     49      5     28
    -10     84     16     63     44     36     73     46     11     -1     18     -5    -11     54    -12     82     -6    -17     -7    -23     83    -18     58    -23     60     25     24     22    -20     52     52     46    -19     83     49     92     19      7      0     -9     79     39     51     -6     45     87     77     41     46      1     20     12     49     83     25     70     43     87     66     70      1      8     56     52     26     12    -22     18     63     50
     10     11     10     14     15	    117     52     34     39      7      0      0      0      0     52      0      0     89      0      0      0      0      0      0      0     28      0     79     51      0      0      0      0      0      0      0      0     50      0      0     20      0      0      0    -14      0      0      0    -23     81      0      0      0      0      0      0      2      0      0      0      0      0      0     15      0      0      0      0      0      0
      8     14     15     11     11	    432    287     21     22      7      0      0      0      0      0    133      0    329      0      0      0      0      0      0      0     16      0    127      0      0    130      0      0      0      0      0      0      0      0      0     17      0      0      0      0      0    180      0      0      0      0      0      0      0      0      0      0     75      0     55      0    113     41      0      0      0    -48      0      0      0
      7     11     10     10     10	    291     53     43     44     10      0      0      0      0      0     71      0      0      0      0      0      0      0      0     83      0      0      0      0      0      0      0      0      0      0      0     -4      0      0      0      0      0      0     18      0      0      0      0      0      0      0    174      0    118      0      0     70     74      0      0      0      0      0      0    120      0      0      0     15      0
     10     12     10     14     10	    220    117     39     42     10      0      0      0      0      0      0     -9      0      0      0    136      0      0      0      0      0      0      0     71      0      0      0      0      0      0      0      0      0      0      0      0      0      0      0      0      0      0    119      0      0      0      0      0      0      0      0    155     44      0      0      0      0      0     41      0      0    147      0      0      0
     12     12     10     15     14	    398    264     18     47      6     52      0      0      0      0      0    -34      0     55      0     18      0      0      0      0      0      0      0      0      0     86      0     66      0      0      0      0      0      0      0      0      0      0      0      0      0      0      0      0      0      0      0      0      0      0      0      0      0      0      0      0      0      0      0     21      0      0      0      0      0
      9     13     12     14     14	    314    134     25     28      5      0    133     71      0      0      0      0      0      0      0      0      0      0     60      0    178      0    -34      0      0      0    205      6     68      0      0      0      0      0     37      0      0      0     67      0      0      0      0     62     12      0      0      0      0      0      0      0    116      0      0      0      0      0      0      0      0      0      0      0     -8
     10     14     12     13     14	    173     66     21     47     10      0      0      0     -9    -34      0      0      0      0    -14      0      0      0      0      0      0     46      0      0    117    133      0      0      0      0      0      0      0      0      0      0      0      0      0     22      0     82      0      0     32    -12      0      0    101      0      8      0      0      0      0      0      0      0      0      0      0      0    -19      0      0
      6     10     12     10     11	    452    316     42     47     10     89    329      0      0      0      0      0      0      0      0      0    -38     76      0      0      0      0      0      0    103      0      0    -41      0      0    -26      0      0    128     86     56    283      0      0    -41      0      0      0      0      0      0     82      0    216    158     16      0      0    -53     32      0      0      0     50      0      0      0      0      0      0
     10     11     14     13     10	    387     95     36     45      4      0      0      0      0     55      0      0      0      0      0      0      0      0      0      0      0      0      0      0      0      0      0      0      0      0      0      0      0     58    -44      0      0      0      0      0      0      0      0      0     23      0      0      0      0      0      0      0      0      0      0      0      0      0      0     33      0      0      0      0    -50
     10     10     13     10     14	    266     91     37     43     10      0      0      0      0      0      0    -14      0      0      0      0      0      0      0      0      0      0      0      0      0      0      0      0      0      0      0      0      0      0    158      0      0      0     19      0    172      1      0      0      0      0      0     67      0      0     28     94      0      0      0      0      0      0      0      0      0      0      0      0      0
     10     10     15     13     14	    372    127     21     40      7      0      0      0    136     18      0      0      0      0      0      0      0      0      0      0      0      0      0      0     66      0      0      0      0      0      0     85      0      0      3     36      0      0      0      0      0      0      0      0      0      0      0      0      0      0      0    114      0      0      0      0      0      0     87      0      0      0      0      0      0
     11     15     12     13     10	    223     63     36     39      3      0      0      0      0      0      0      0    -38      0      0      0      0      0      0      0      0      0    -34      0      0      0      0      0     63      0      0      0    129    144    -25      0      0      0      0      0      0      0      0      0      0      0      0    -21      0      0      0      0      3      0      0      0      0      0     57      0      0    171      0      0      0
      7     15     10     10     10	    287     99     18     32      6      0      0      0      0      0      0      0     76      0      0      0      0      0    145      0      0     30      0      0      0      0      0      0      0      0      0      0    -57      0      0     45     38      0     70      0      0      0    139      0      1      0      0     -7      0      0      0      0      0      0      0      1     30      0      0      0      0      0      0    -13      0
     10     11     14     13     14	    432    204     14     36      8      0      0      0      0      0     60      0      0      0      0      0      0    145      0      0      0    102     20      0     87      0      0      0      0      0      0      0      0      0      0      0    226      0      0      0      0      0      0      0      0      0      0      0      0      0      0      0      0      0      0    104      0      0     12      0      0      0      0      0      0
      9     15     13     14     15	    459    218     35     36     10      0      0     83      0      0      0      0      0      0      0      0      0      0      0      0      0      0      0      0      0     37      0      0      0      0      0      0    197      0     57      0      0      0      0    -41      0      0      0      0      0      0      0      0      0      0      0      0      0      0     20      0      0      0      0      0      0    326      0      0      0
      9     10     15     11     14	    334     60     40     47      1     28     16      0      0      0    178      0      0      0      0      0      0      0      0      0      0      0    110      0      0      0      0      0      0      0    176    114    136      0      0      0      0      0      0     -4      0      0      0      0      0      0      0      0      0      0      0      0    112      0      0    201      0      0      0      0      0    182      0      0      0
     10     15     14     10     15	    426     82     18     25      4      0      0      0      0      0      0     46      0      0      0      0      0     30    102      0      0      0      0      0      0     69    229      0      0      0      0      0    -23      0      4      0     16      0     25      0      0      0      0      0     50      0      0     27      0      0     -6      0      0      0      0      0      0      0      0      0      0      0      0      0     84
      6     12     14     15     14	    470    152     23     42      3     79    127      0      0      0    -34      0      0      0      0      0    -34      0     20      0    110      0      0      0      0      0      0      0      0    -43    -43     47      0      0      0      0      0      0      0      0      0    173      0      0      0      0      0      0      0      0      0    162     56      0      0      0     -7      0      0     83      0      0      0      0      0
     10     10     15     11     15	    191    110     27     41      3     51      0      0     71      0      0      0      0      0      0      0      0      0      0      0      0      0      0      0      0      0    -11      0      0      0      0    113      0      0     60      0      0      0      0      0     69      0     10      0      0      0      0      2    111    -34    100      0      0      0      0     31    -26     19    -13      0     89      0      0      0     67
      7     11     13     10     15	    178     62     21     23      6      0      0      0      0      0      0    117    103      0      0     66      0      0     87      0      0      0      0      0      0      0      0      0      0      0      0      0      0      0      0     81      0      0      0      0      0      0     -1      0     78     93      0      0     -5      0      0      0      0      0      0      0      0      0    -32      0      0      0      0      4      0
      6     11     14     11     14	    184     55     30     40      3      0    130      0      0     86      0    133      0      0      0      0      0      0      0     37      0     69      0      0      0      0      0      0      0      0      0      0      0      0      0      0      0      0     83      0      0      0      0     65     22      0      0      0      0      0     16      0      0      0      0      0    146      0      0     81      0      0      0     28      0
      7     15     13     13     15	    341    201     30     44      3      0      0      0      0      0    205      0      0      0      0      0      0      0      0      0      0    229      0    -11      0      0      0      0      0      0      0      0      0    121      0      4      0    151      0    183      0      0      0      0     37      0      0      0      0      0      0      0      0      0      0      0      0      0      0      0    -34      0      0     -1      0
     10     10     12     13     11	    248     52     46     50      1      0      0      0      0     66      6      0    -41      0      0      0      0      0      0      0      0      0      0      0      0      0      0      0     53    151      0     -4      0      0      0      0      0    176      0      0      0      0      0      0      0      0     47      0     29      0     96      0      0    135      0      0      0      0     42      0    -17    168      0      0      0
      9     10     12     12     10	    447    275     16     36      2      0      0      0      0      0     68      0      0      0      0      0     63      0      0      0      0      0      0      0      0      0      0     53      0      0      0      0      0      0      0      0      0      0      0      0      0      0     10      0      0      0      0      0    227      0      0      0      0      0      0    109      0      0      0      0      0      0      0      8      0
      6     13     11     10     10	    455    237     16     47      7      0      0      0      0      0      0      0      0      0      0      0      0      0      0      0      0      0    -43      0      0      0      0    151      0      0      0    126      0    -57      0     -7      0    183      4      0      0      0      0      0      0     63      0      0      0      0      0     -3      0      0      0      0      0      0      0      0      0      0      0      0      0
      8     10     15     15     12	    268    171     37     50      3      0      0      0      0      0      0      0    -26      0      0      0      0      0      0      0    176      0    -43      0      0      0      0      0      0      0      0    131    104      0      0      0      0      0      0      0    123      0      0      0      0      0      0      3      0    -43      0      0      0    152      0      0      1      0      0      0      0      0      0    -43      0
     10     11     12     13     12	    171     52     11     23      4      0      0     -4      0      0      0      0      0      0      0     85      0      0      0      0    114      0     47    113      0      0      0     -4      0    126    131      0      0      0      0      0      0      0      0      0      0     85      0      0      0      0    134      0      0      0      0      0      0      0      0      0      0    -12     99      0      0      0      0      0      0
      8     14     12     15     14	    359     70     27     40      3     50      0      0      0      0      0      0      0      0      0      0    129    -57      0    197    136    -23      0      0      0      0      0      0      0      0    104      0      0      0      0      0      0      0      0    168      0      0      0      0      0      0    100      0      0      0      0      0      0      0     11      0      0      0      0      0      0    259      0      0      0
      8     13     13     11     14	    297     58     46     49      9      0      0      0      0      0      0      0    128     58      0      0    144      0      0      0      0      0      0      0      0      0    121      0      0    -57      0      0      0      0     48      0      0      0      0      0    -42    191    176      0    -12     86      0      0      0      0      0      0      0      0    106      0      0      0      0     98      0      0      0      0      0
      9     15     10     14     10	    265     50     31     45      4      0      0      0      0      0     37      0     86    -44    158      3    -25      0      0     57      0      4      0     60      0      0      0      0      0      0      0      0      0     48      0      0    192      0     -9    110    110      0      0      0      0      0      0      0    104      0      0      0     71      0      0      0      0      0      0      0      0      0      0      0      0
      6     13     12     12     13	    102     63     44     49      9     20     17      0      0      0      0      0     56      0      0     36      0     45      0      0      0      0      0      0     81      0      4      0      0     -7      0      0      0      0      0      0      0      0      0      0      0     41      0     36      1      0     21      0    -19      0      0      0      0     44      0     49      0      0     -3      0      0     57      6      0      0
     10     12     14     13     12	    431     64     27     47      1      0      0      0      0      0      0      0    283      0      0      0      0     38    226      0      0     16      0      0      0      0      0      0      0      0      0      0      0      0    192      0      0      0      0      0      0      0    -21      0      0      0      0      0      0      0      0      0      0     97      0      0      0      0    -31      0     27      0      0      0      0
     12     13     10     13     14	    306    124     46     50      8      0      0      0      0      0      0      0      0      0      0      0      0      0      0      0      0      0      0      0      0      0    151    176      0    183      0      0      0      0      0      0      0      0      0      0      0      0      0      0      0      0      0     42      0      0      0      0      0      0     33      0      0      2      0      0      0     30      0      0      0
      6     13     10     14     14	    128     84     43     43      8      0      0     18      0      0     67      0      0      0     19      0      0     70      0      0      0     25      0      0      0     83      0      0      0      4      0      0      0      0     -9      0      0      0      0      0      0      0      0      0      0      0      0      0     54      0      0      0      0     56      0      0     45      0      0      0      0      0      0     37      0
      7     11     12     11     12	    246     57     16     36     10    -14      0      0      0      0      0     22    -41      0      0      0      0      0      0    -41     -4      0      0      0      0      0    183      0      0      0      0      0    168      0    110      0      0      0      0      0      0     40      0      0      0     38      0      0     26      5      0      0      0      0      0     35      0      0      0    168      0      0      0      0      0
      8     11     10     11     12	    266    117     36     46      3      0      0      0      0      0      0      0      0      0    172      0      0      0      0      0      0      0      0     69      0      0      0      0      0      0    123      0      0    -42    110      0      0      0      0      0      0      0      0     49      0      0      0      0     71      0      0      0     74    115      0      0     45      0      0      0      0      0      0      0    -15
      7     14     11     11     11	    276    129     35     48      2      0    180      0      0      0      0     82      0      0      1      0      0      0      0      0      0      0    173      0      0      0      0      0      0      0      0     85      0    191      0     41      0      0      0     40      0      0      0      0      0      0      0     38      0      0      0      0      0      0      0      0    -29      0      0      0     65    197      0      0      0
      6     14     12     15     12	    262    151     13     40     10      0      0      0    119      0      0      0      0      0      0      0      0    139      0      0      0      0      0     10     -1      0      0      0     10      0      0      0      0    176      0      0    -21      0      0      0      0      0      0     85      0    -12      0      0      0     87      0    162      0    193      0      0      0      0      0      0      0      0    160      0      0
      9     12     15     14     12	    500    156     20     42      5    -23      0      0      0      0     62      0      0      0      0      0      0      0      0      0      0      0      0      0      0     65      0      0      0      0      0      0      0      0      0     36      0      0      0      0     49      0     85      0      0      0      0      0      0      0      0      0      0      0      0      0    -23      0      0      0      0      0      0      0      0
     12     14     13     13     10	    103     56     12     30      9     81      0      0      0      0     12     32      0     23      0      0      0      1      0      0      0     50      0      0     78     22     37      0      0      0      0      0      0    -12      0      1      0      0      0      0      0      0      0      0      0      0      0     -9      0      0      0     33      0      0      0     -9      0      0      0      0      0      0     61     48      0
      8     10     14     12     14	    152     67     23     25     10      0      0      0      0      0      0    -12      0      0      0      0      0      0      0      0      0      0      0      0     93      0      0      0      0     63      0      0      0     86      0      0      0      0      0     38      0      0    -12      0      0      0      0      0      0      0      0      0      0      0      0      1      0      0      0      0      0      0      0      0      0
      7     12     15     13     13	    246    160     16     34     10      0      0    174      0      0      0      0     82      0      0      0      0      0      0      0      0      0      0      0      0      0      0     47      0      0      0    134    100      0      0     21      0      0      0      0      0      0      0      0      0      0      0      0      0     20      0      0      0      0      0      0      0      0      0      0      0      0      0      0      0
     10     14     11     13     10	    111     75     47     50      8      0      0      0      0      0      0      0      0      0     67      0    -21     -7      0      0      0     27      0      2      0      0      0      0      0      0      3      0      0      0      0      0      0     42      0      0      0     38      0      0     -9      0      0      0      0      0      0      0      0     53      0      0      0      0      0      0      0     51      0      0    -15
      6     13     10     10     11	    353    115     44     44      6      0      0    118      0      0      0    101    216      0      0      0      0      0      0      0      0      0      0    111     -5      0      0     29    227      0      0      0      0      0    104    -19      0      0     54     26     71      0      0      0      0      0      0      0      0      0      0      0      0      0     41      0     25      0      0      0    -67      0      0      0      0
      7     15     10     11     14	    498    300     38     46      5      0      0      0      0      0      0      0    158      0      0      0      0      0      0      0      0      0      0    -34      0      0      0      0      0      0    -43      0      0      0      0      0      0      0      0      5      0      0     87      0      0      0     20      0      0      0      0      0      0     53      0      0     75      0    202      0      0      0      0      0      0
      9     15     13     13     14	    189     57      9     18      6      0      0      0      0      0      0      8     16      0     28      0      0      0      0      0      0     -6      0    100      0     16      0     96      0      0      0      0      0      0      0      0      0      0      0      0      0      0      0      0      0      0      0      0      0      0      0      0     46     54      0      0      0      0      0      0      0     52      0      0      0
      7     14     15     15     10	    206    140     20     21      9      2      0     70    155      0      0      0      0      0     94    114      0      0      0      0      0      0    162      0      0      0      0      0      0     -3      0      0      0      0      0      0      0      0      0      0      0      0    162      0     33      0      0      0      0      0      0      0      0      0     13      0      0     -6     54     15    -40     64      0     82      0
      6     14     11     13     12	    145     93     14     42      8      0     75     74     44      0    116      0      0      0      0      0      3      0      0      0    112      0     56      0      0      0      0      0      0      0      0      0      0      0     71      0      0      0      0      0     74      0      0      0      0      0      0      0      0      0     46      0      0     31      0      0      0      0      0      0      0      0     25      0      0
     11     10     15     12     10	    298    195     22     43      8      0      0      0      0      0      0      0    -53      0      0      0      0      0      0      0      0      0      0      0      0      0      0    135      0      0    152      0      0      0      0     44     97      0     56      0    115      0    193      0      0      0      0     53      0     53     54      0     31      0      0      0     41      0      0      0    194      0      0      0      0
     10     11     10     14     15	    152     85     30     39      5      0     55      0      0      0      0      0     32      0      0      0      0      0      0     20      0      0      0      0      0      0      0      0      0      0      0      0     11    106      0      0      0     33      0      0      0      0      0      0      0      0      0      0     41      0      0     13      0      0      0      0     26      0    120     54      0      0      0      0      0
      6     12     11     11     14	    345    238     49     50      4      0      0      0      0      0      0      0      0      0      0      0      0      1    104      0    201      0      0     31      0      0      0      0    109      0      0      0      0      0      0     49      0      0      0     35      0      0      0      0     -9      1      0      0      0      0      0      0      0      0      0      0      0      0      0      0      0      0      0      0      0
     11     10     14     12     10	    194     76     13     22      4      0    113      0      0      0      0      0      0      0      0      0      0     30      0      0      0      0     -7    -26      0    146      0      0      0      0      1      0      0      0      0      0      0      0     45      0     45    -29      0    -23      0      0      0      0     25     75      0      0      0     41     26      0      0      0      0    -34      0     18      0      0      0
      7     13     11     12     13	    140     87     20     26      8      0     41      0      0      0      0      0      0      0      0      0      0      0      0      0      0      0      0     19      0      0      0      0      0      0      0    -12      0      0      0      0      0      2      0      0      0      0      0      0      0      0      0      0      0      0      0     -6      0      0      0      0      0      0      0     21     -6      0     22      0      0
      9     12     12     13     14	    492     63     45     45      5     15      0      0     41      0      0      0     50      0      0     87     57      0     12      0      0      0      0    -13    -32      0      0     42      0      0      0     99      0      0      0     -3    -31      0      0      0      0      0      0      0      0      0      0      0      0    202      0     54      0      0    120      0      0      0      0      0      0    -42      0      0      0
     11     12     15     12     10	    215    118     30     31      8      0      0    120      0     21      0      0      0     33      0      0      0      0      0      0      0      0     83      0      0     81      0      0      0      0      0      0      0     98      0      0      0      0      0    168      0      0      0      0      0      0      0      0      0      0      0     15      0      0     54      0    -34     21      0      0      0     95      0      0      0
      6     10     11     12     10	    371    251     44     50      4      0      0      0      0      0      0      0      0      0      0      0      0      0      0      0      0      0      0     89      0      0    -34    -17      0      0      0      0      0      0      0      0     27      0      0      0      0     65      0      0      0      0      0      0    -67      0      0    -40      0    194      0      0      0     -6      0      0      0      0      0      0      0
      8     10     12     10     11	    467    151     46     47     10      0    -48      0    147      0      0      0      0      0      0      0    171      0      0    326    182      0      0      0      0      0      0    168      0      0      0      0    259      0      0     57      0     30      0      0      0    197      0      0      0      0      0     51      0      0     52     64      0      0      0      0     18      0    -42     95      0      0      0    297      0
      9     14     12     15     14	    340     62     20     32      8      0      0      0      0      0      0    -19      0      0      0      0      0      0      0      0      0      0      0      0      0      0      0      0      0      0      0      0      0      0      0      6      0      0      0      0      0      0    160      0     61      0      0      0      0      0      0      0     25      0      0      0      0     22      0      0      0      0      0      0      0
      6     13     13     14     12	    411    161     18     20      4      0      0     15      0      0      0      0      0      0      0      0      0    -13      0      0      0      0      0      0      4     28     -1      0      8      0    -43      0      0      0      0      0      0      0     37      0      0      0      0      0     48      0      0      0      0      0      0     82      0      0      0      0      0      0      0      0      0    297      0      0      0
      8     15     12     15     15	    257    114     17     24      7      0      0      0      0      0     -8      0      0    -50      0      0      0      0      0      0      0     84      0     67      0      0      0      0      0      0      0      0      0      0      0      0      0      0      0      0    -15      0      0      0      0      0      0    -15      0      0      0      0      0      0      0      0      0      0      0      0      0      0      0      0      0